424 5
10 10 10 10 10 

0 0 0 0 0 0 5 2 14 26 38 50 
0 0 0 0 0 0 4 3 4 5 7 
7 1 0 0 0 0 4 12 11 9 8 
7 6 0 0 0 0 3 12 11 6 
7 5 0 0 0 0 1 6 
9 4 0 0 0 0 2 10 9 
10 9 0 0 0 0 2 11 9 
9 5 0 0 0 0 1 10 
10 5 0 0 0 0 1 13 
10 5 0 0 0 0 1 13 
7 3 0 0 0 0 1 13 
1 7 0 0 0 0 1 13 
0 0 0 0 0 0 1 62 
0 0 0 0 0 0 4 15 16 17 19 
2 1 0 0 0 0 3 21 20 18 
4 6 0 0 0 0 3 23 21 20 
4 2 0 0 0 0 3 24 23 20 
9 7 0 0 0 0 2 23 22 
6 9 0 0 0 0 2 23 22 
2 3 0 0 0 0 1 22 
2 5 0 0 0 0 1 24 
8 6 0 0 0 0 1 25 
9 6 0 0 0 0 1 25 
7 5 0 0 0 0 1 25 
0 0 0 0 0 0 1 62 
0 0 0 0 0 0 5 27 28 29 31 32 
1 0 0 1 0 0 3 36 34 30 
3 0 0 4 0 0 3 36 34 30 
8 0 0 4 0 0 2 35 33 
8 0 0 7 0 0 1 33 
4 0 0 6 0 0 1 35 
9 0 0 8 0 0 1 34 
10 0 0 1 0 0 1 37 
1 0 0 6 0 0 1 37 
1 0 0 4 0 0 1 37 
4 0 0 9 0 0 1 37 
0 0 0 0 0 0 1 62 
0 0 0 0 0 0 6 39 41 45 46 47 48 
6 0 1 0 0 0 1 40 
6 0 7 0 0 0 2 43 42 
9 0 6 0 0 0 1 44 
2 0 3 0 0 0 1 49 
7 0 4 0 0 0 1 49 
8 0 6 0 0 0 1 49 
4 0 5 0 0 0 1 49 
8 0 6 0 0 0 1 49 
6 0 5 0 0 0 1 49 
4 0 7 0 0 0 1 49 
0 0 0 0 0 0 1 62 
0 0 0 0 0 0 4 51 52 54 60 
4 1 0 0 0 0 4 58 57 55 53 
7 5 0 0 0 0 4 58 57 56 55 
2 6 0 0 0 0 2 59 56 
8 8 0 0 0 0 1 55 
3 4 0 0 0 0 1 61 
10 6 0 0 0 0 1 61 
4 7 0 0 0 0 1 61 
9 5 0 0 0 0 1 61 
4 4 0 0 0 0 1 61 
9 4 0 0 0 0 1 61 
0 0 0 0 0 0 1 62 
0 0 0 0 0 0 5 63 75 87 99 111 
0 0 0 0 0 0 5 64 66 67 72 73 
1 0 0 1 0 0 3 71 68 65 
1 0 0 5 0 0 2 70 69 
10 0 0 8 0 0 1 68 
7 0 0 5 0 0 1 68 
4 0 0 6 0 0 1 74 
6 0 0 4 0 0 1 74 
6 0 0 7 0 0 1 74 
7 0 0 4 0 0 1 74 
8 0 0 7 0 0 1 74 
10 0 0 3 0 0 1 74 
0 0 0 0 0 0 1 123 
0 0 0 0 0 0 6 76 77 79 80 81 85 
3 0 0 0 1 0 2 84 83 
3 0 0 0 4 0 1 78 
3 0 0 0 6 0 1 82 
2 0 0 0 7 0 1 82 
3 0 0 0 5 0 1 82 
8 0 0 0 6 0 1 82 
6 0 0 0 9 0 1 86 
2 0 0 0 4 0 1 86 
2 0 0 0 4 0 1 86 
6 0 0 0 4 0 1 86 
0 0 0 0 0 0 1 123 
0 0 0 0 0 0 4 88 89 90 97 
1 0 1 0 0 0 3 96 93 92 
6 0 6 0 0 0 3 96 93 91 
9 0 4 0 0 0 3 96 92 91 
6 0 5 0 0 0 2 95 94 
3 0 4 0 0 0 1 95 
3 0 8 0 0 0 1 94 
1 0 5 0 0 0 1 98 
5 0 3 0 0 0 1 98 
3 0 7 0 0 0 1 98 
5 0 7 0 0 0 1 98 
0 0 0 0 0 0 1 123 
0 0 0 0 0 0 5 100 101 103 104 109 
5 0 0 0 0 1 2 107 105 
4 0 0 0 0 7 1 102 
7 0 0 0 0 3 2 107 106 
9 0 0 0 0 3 2 108 107 
7 0 0 0 0 6 1 105 
7 0 0 0 0 4 1 106 
3 0 0 0 0 9 1 110 
4 0 0 0 0 5 1 110 
4 0 0 0 0 9 1 110 
10 0 0 0 0 3 1 110 
0 0 0 0 0 0 1 123 
0 0 0 0 0 0 6 112 114 118 119 120 121 
2 1 0 0 0 0 1 113 
3 5 0 0 0 0 2 117 116 
3 8 0 0 0 0 1 115 
6 3 0 0 0 0 1 116 
4 4 0 0 0 0 1 122 
6 5 0 0 0 0 1 122 
7 6 0 0 0 0 1 122 
4 7 0 0 0 0 1 122 
10 6 0 0 0 0 1 122 
10 5 0 0 0 0 1 122 
0 0 0 0 0 0 1 123 
0 0 0 0 0 0 5 124 156 188 220 252 
0 0 0 0 0 0 6 125 126 127 128 131 154 
7 1 0 1 0 2 4 153 135 132 129 
3 7 0 6 0 5 4 138 136 135 129 
6 6 0 9 0 4 4 138 132 130 129 
3 6 0 3 0 5 3 145 135 129 
10 6 0 6 0 2 3 144 140 133 
7 5 0 4 0 6 4 150 149 136 134 
9 6 0 4 0 4 5 152 149 139 138 136 
8 7 0 6 0 7 5 149 148 144 143 139 
8 6 0 6 0 4 3 149 148 134 
10 4 0 7 0 6 3 151 143 139 
7 9 0 8 0 6 2 144 137 
6 4 0 4 0 6 3 148 143 141 
6 7 0 5 0 8 1 139 
8 5 0 5 0 10 2 148 142 
6 5 0 3 0 4 1 141 
4 6 0 7 0 5 2 150 147 
9 5 0 3 0 3 1 142 
6 5 0 5 0 6 1 146 
6 3 0 4 0 6 1 147 
1 4 0 2 0 3 1 150 
7 4 0 4 0 4 1 149 
10 4 0 7 0 3 1 155 
1 3 0 3 0 6 1 155 
10 4 0 9 0 2 1 155 
10 4 0 1 0 8 1 155 
3 2 0 10 0 3 1 155 
8 8 0 3 0 6 1 155 
10 4 0 5 0 6 1 155 
7 4 0 2 0 8 1 155 
9 6 0 8 0 2 1 155 
0 0 0 0 0 0 1 424 
0 0 0 0 0 0 7 157 158 159 160 166 185 186 
5 0 0 1 3 1 4 173 164 162 161 
10 0 0 6 5 6 6 182 181 179 173 169 163 
6 0 0 5 5 6 6 184 182 178 174 172 164 
2 0 0 7 6 4 4 183 182 169 163 
1 0 0 10 7 3 3 181 174 163 
2 0 0 6 6 7 3 177 167 165 
8 0 0 3 7 4 2 177 165 
4 0 0 1 5 4 4 181 179 177 168 
2 0 0 4 7 5 3 178 172 168 
4 0 0 3 5 6 3 173 171 167 
4 0 0 3 5 5 2 180 172 
8 0 0 3 7 8 1 170 
3 0 0 10 7 5 1 170 
2 0 0 5 5 4 1 171 
9 0 0 1 3 8 1 175 
2 0 0 4 6 7 1 176 
4 0 0 3 6 5 1 180 
3 0 0 4 5 8 1 179 
5 0 0 6 3 3 1 187 
5 0 0 6 1 4 1 187 
4 0 0 4 3 5 1 187 
4 0 0 5 3 3 1 187 
2 0 0 5 4 9 1 187 
5 0 0 6 6 3 1 187 
7 0 0 7 10 4 1 187 
9 0 0 8 3 5 1 187 
5 0 0 7 5 5 1 187 
9 0 0 8 3 5 1 187 
1 0 0 4 2 5 1 187 
9 0 0 5 7 3 1 187 
0 0 0 0 0 0 1 424 
0 0 0 0 0 0 6 189 190 191 192 193 204 
3 0 1 0 1 1 4 205 196 195 194 
5 0 3 0 3 7 5 205 202 200 195 194 
6 0 7 0 4 4 3 200 195 194 
6 0 8 0 4 7 3 206 196 194 
6 0 7 0 7 8 4 208 206 201 196 
3 0 8 0 5 6 3 201 198 197 
2 0 8 0 5 3 2 206 199 
2 0 4 0 6 4 2 202 200 
4 0 3 0 6 3 2 209 203 
2 0 5 0 2 3 2 209 203 
6 0 4 0 7 5 2 209 203 
7 0 6 0 7 5 1 203 
3 0 7 0 5 4 1 203 
10 0 5 0 6 8 1 203 
5 0 3 0 4 4 5 218 217 214 210 207 
10 0 3 0 4 7 5 218 217 214 210 207 
6 0 9 0 7 7 3 217 212 210 
3 0 8 0 3 6 2 217 207 
1 0 5 0 4 6 2 215 211 
8 0 5 0 7 3 1 209 
5 0 3 0 4 7 3 218 217 215 
3 0 7 0 7 8 2 215 213 
1 0 3 0 4 3 1 212 
2 0 6 0 5 2 1 216 
4 0 4 0 5 5 1 216 
7 0 4 0 5 5 1 215 
3 0 3 0 7 5 1 219 
9 0 4 0 5 6 1 219 
4 0 4 0 8 4 1 219 
8 0 3 0 3 4 1 219 
0 0 0 0 0 0 1 424 
0 0 0 0 0 0 7 221 223 226 227 230 249 250 
4 1 0 0 1 1 4 242 234 224 222 
9 5 0 0 6 5 3 241 235 225 
5 5 0 0 5 6 5 248 247 243 237 228 
3 6 0 0 4 3 4 245 244 237 228 
8 4 0 0 9 7 2 237 228 
8 8 0 0 6 7 5 243 242 238 237 229 
1 4 0 0 2 4 6 246 243 240 237 236 234 
6 7 0 0 6 1 3 238 233 229 
4 5 0 0 8 9 1 231 
2 7 0 0 3 4 2 244 242 
10 5 0 0 5 10 1 232 
1 5 0 0 3 4 1 236 
6 5 0 0 4 2 1 239 
7 7 0 0 4 7 1 241 
9 3 0 0 4 3 1 240 
3 4 0 0 4 4 1 251 
2 5 0 0 6 7 1 251 
4 4 0 0 3 4 1 251 
9 6 0 0 6 10 1 251 
1 4 0 0 7 4 1 251 
4 4 0 0 7 6 1 251 
6 6 0 0 4 5 1 251 
8 7 0 0 6 6 1 251 
6 4 0 0 8 5 1 251 
1 8 0 0 3 8 1 251 
6 3 0 0 2 4 1 251 
10 2 0 0 7 4 1 251 
2 4 0 0 5 2 1 251 
6 7 0 0 7 5 1 251 
6 5 0 0 5 3 1 251 
0 0 0 0 0 0 1 424 
0 0 0 0 0 0 7 253 255 258 259 260 261 262 
9 0 0 0 1 0 2 256 254 
6 0 0 0 3 0 1 257 
10 0 0 0 5 0 1 256 
5 0 0 0 6 0 1 263 
4 0 0 0 8 0 1 263 
7 0 0 0 4 0 1 263 
8 0 0 0 6 0 1 263 
6 0 0 0 3 0 1 263 
3 0 0 0 8 0 1 263 
2 0 0 0 6 0 1 263 
0 0 0 0 0 0 5 264 286 308 330 342 
0 0 0 0 0 0 9 265 266 267 268 269 271 272 273 275 
5 0 1 0 1 0 2 278 270 
7 0 5 0 3 0 2 278 270 
7 0 2 0 8 0 3 284 278 274 
8 0 3 0 5 0 1 270 
4 0 6 0 8 0 5 284 283 279 278 277 
7 0 9 0 5 0 4 284 283 279 276 
10 0 5 0 6 0 4 284 283 279 276 
3 0 5 0 6 0 4 284 279 278 276 
5 0 6 0 6 0 4 284 283 282 276 
2 0 4 0 6 0 3 283 282 276 
5 0 6 0 5 0 2 283 277 
5 0 3 0 4 0 1 277 
2 0 6 0 6 0 2 281 280 
1 0 6 0 6 0 2 282 280 
6 0 6 0 5 0 1 282 
7 0 4 0 2 0 1 285 
5 0 6 0 9 0 1 285 
6 0 4 0 1 0 1 285 
10 0 5 0 4 0 1 285 
3 0 8 0 4 0 1 285 
0 0 0 0 0 0 1 424 
0 0 0 0 0 0 4 287 288 289 291 
3 0 0 1 0 1 3 293 292 290 
4 0 0 9 0 4 3 299 293 292 
6 0 0 5 0 7 3 299 294 293 
10 0 0 6 0 7 4 299 296 295 294 
8 0 0 4 0 7 4 299 296 295 294 
7 0 0 5 0 2 3 296 295 294 
2 0 0 4 0 4 3 306 296 295 
4 0 0 7 0 4 5 306 301 300 298 297 
1 0 0 5 0 4 3 301 298 297 
5 0 0 4 0 7 4 305 304 301 300 
7 0 0 4 0 10 3 305 304 303 
8 0 0 8 0 4 3 305 303 302 
6 0 0 5 0 5 3 304 303 302 
10 0 0 5 0 2 2 303 302 
2 0 0 8 0 5 1 302 
10 0 0 4 0 5 1 307 
2 0 0 5 0 5 1 307 
5 0 0 5 0 7 1 307 
4 0 0 2 0 5 1 307 
4 0 0 4 0 5 1 307 
0 0 0 0 0 0 1 424 
0 0 0 0 0 0 5 309 311 312 313 317 
3 1 0 0 1 0 2 318 310 
9 6 0 0 6 0 4 328 321 319 314 
2 1 0 0 7 0 3 327 316 315 
5 8 0 0 2 0 3 320 319 318 
9 6 0 0 9 0 2 318 314 
1 2 0 0 5 0 4 326 325 323 320 
10 4 0 0 6 0 4 328 325 324 319 
7 3 0 0 8 0 4 325 324 321 319 
2 4 0 0 4 0 5 328 327 324 322 321 
3 7 0 0 5 0 3 325 322 321 
4 4 0 0 5 0 3 326 323 322 
3 8 0 0 6 0 3 327 324 322 
2 2 0 0 4 0 1 323 
3 6 0 0 4 0 1 329 
10 5 0 0 6 0 1 329 
7 7 0 0 6 0 1 329 
10 4 0 0 6 0 1 329 
5 5 0 0 4 0 1 329 
1 7 0 0 2 0 1 329 
3 10 0 0 4 0 1 329 
0 0 0 0 0 0 1 424 
0 0 0 0 0 0 3 331 332 335 
9 1 0 0 0 0 3 336 334 333 
2 6 0 0 0 0 2 336 334 
1 5 0 0 0 0 4 340 339 338 337 
9 8 0 0 0 0 3 339 338 337 
5 2 0 0 0 0 3 340 338 337 
7 7 0 0 0 0 1 337 
8 6 0 0 0 0 1 341 
7 10 0 0 0 0 1 341 
9 3 0 0 0 0 1 341 
6 2 0 0 0 0 1 341 
0 0 0 0 0 0 5 364 376 388 400 412 
0 0 0 0 0 0 7 343 344 345 347 348 361 362 
9 0 0 0 1 1 5 360 358 357 350 346 
5 0 0 0 10 4 6 358 357 355 354 352 350 
9 0 0 0 2 4 5 358 357 355 354 351 
8 0 0 0 4 5 2 355 349 
10 0 0 0 4 5 3 359 357 350 
7 0 0 0 6 8 3 355 354 350 
6 0 0 0 3 5 3 356 354 351 
10 0 0 0 6 7 1 351 
3 0 0 0 5 10 1 353 
2 0 0 0 7 6 1 356 
2 0 0 0 2 6 1 363 
1 0 0 0 8 3 1 363 
8 0 0 0 8 4 1 363 
7 0 0 0 7 4 1 363 
5 0 0 0 5 4 1 363 
4 0 0 0 6 4 1 363 
5 0 0 0 3 5 1 363 
3 0 0 0 5 6 1 363 
9 0 0 0 3 5 1 363 
4 0 0 0 5 4 1 363 
0 0 0 0 0 0 1 424 
0 0 0 0 0 0 2 365 366 
9 0 0 1 0 0 3 369 368 367 
8 0 0 5 0 0 2 368 367 
7 0 0 6 0 0 4 373 372 371 370 
10 0 0 7 0 0 3 373 372 370 
6 0 0 7 0 0 3 374 371 370 
8 0 0 3 0 0 1 375 
4 0 0 8 0 0 1 375 
4 0 0 3 0 0 1 375 
10 0 0 5 0 0 1 375 
2 0 0 5 0 0 1 375 
0 0 0 0 0 0 1 424 
0 0 0 0 0 0 3 377 378 381 
5 0 0 0 1 0 3 382 380 379 
5 0 0 0 6 0 2 382 379 
2 0 0 0 5 0 4 386 385 384 383 
4 0 0 0 5 0 4 386 385 384 383 
3 0 0 0 6 0 4 386 385 384 383 
6 0 0 0 2 0 3 385 384 383 
10 0 0 0 7 0 1 387 
7 0 0 0 9 0 1 387 
2 0 0 0 5 0 1 387 
1 0 0 0 4 0 1 387 
0 0 0 0 0 0 1 424 
0 0 0 0 0 0 7 389 390 394 395 396 397 398 
7 0 0 5 0 0 2 393 391 
2 0 0 3 0 0 1 391 
2 0 0 5 0 0 1 392 
10 0 0 6 0 0 1 399 
3 0 0 10 0 0 1 399 
1 0 0 3 0 0 1 399 
4 0 0 5 0 0 1 399 
6 0 0 3 0 0 1 399 
10 0 0 5 0 0 1 399 
4 0 0 5 0 0 1 399 
0 0 0 0 0 0 1 424 
0 0 0 0 0 0 7 401 402 403 404 405 409 410 
8 0 0 0 0 1 2 408 406 
1 0 0 0 0 5 2 408 406 
1 0 0 0 0 3 1 406 
1 0 0 0 0 5 1 406 
7 0 0 0 0 6 1 406 
8 0 0 0 0 3 1 407 
2 0 0 0 0 3 1 411 
3 0 0 0 0 10 1 411 
1 0 0 0 0 5 1 411 
8 0 0 0 0 9 1 411 
0 0 0 0 0 0 1 424 
0 0 0 0 0 0 3 413 416 417 
7 2 0 0 0 0 2 415 414 
2 3 0 0 0 0 5 422 421 420 419 418 
6 4 0 0 0 0 2 421 420 
7 3 0 0 0 0 2 419 418 
6 5 0 0 0 0 1 418 
5 7 0 0 0 0 1 423 
6 5 0 0 0 0 1 423 
10 10 0 0 0 0 1 423 
7 5 0 0 0 0 1 423 
6 6 0 0 0 0 1 423 
0 0 0 0 0 0 1 424 
0 0 0 0 0 0 0 
